(set-logic HORN)
(set-info :source |
    Benchmark: C_VC
    Output by Princess (http://www.philipp.ruemmer.org/princess.shtml)
|)
(set-info :status unsat)
;===============================================================================
; Encoding of Heap sorts and operations
;-------------------------------------------------------------------------------
(define-sort Addr() Int)
(declare-datatypes ((HeapObject 0) (node 0))
                   (((O_Int (getInt Int)) (O_UInt (getUInt Int)) (O_Addr (getAddr Addr)) (O_node (getnode node)) (defObj))
                   ((node (h Int) (n Addr)))))
(declare-datatypes ((AllocResHeap 0) (Heap 0))
                   (((AllocResHeap   (newHeap Heap) (newAddr Addr)))
                    ((HeapCtor (HeapSize Int)
                               (HeapContents (Array Addr HeapObject))))))
(define-fun nullAddr  () Addr 0)
(define-fun valid     ((h Heap) (p Addr)) Bool
  (and (>= (HeapSize h) p) (> p 0)))
(define-fun emptyHeap () Heap (
  HeapCtor 0 (( as const (Array Addr HeapObject)) defObj)))
(define-fun read ((h Heap) (p Addr)) HeapObject
  (ite (valid h p)
       (select (HeapContents h) p)
       defObj))
(define-fun write ((h Heap) (p Addr) (o HeapObject)) Heap
  (ite (valid h p)
       (HeapCtor (HeapSize h) (store (HeapContents h) p o))
       h))
(define-fun alloc   ((h Heap) (o HeapObject)) AllocResHeap
  (AllocResHeap (HeapCtor (+ 1 (HeapSize h))
                    (store (HeapContents h) (+ 1 (HeapSize h)) o))
          (+ 1 (HeapSize h))))

;===============================================================================
(declare-fun inv_main0 (Heap Int) Bool)
(declare-fun inv_main13 (Heap Addr Addr Addr) Bool)
(declare-fun inv_main14 (Heap Addr Addr Addr) Bool)
(declare-fun inv_main19 (Heap Addr Addr Addr) Bool)
(declare-fun inv_main2 (Heap) Bool)
(declare-fun inv_main22 (Heap Addr Addr Addr Int) Bool)
(declare-fun inv_main26 (Heap Addr Addr Addr) Bool)
(declare-fun inv_main29 (Heap Addr Addr Addr) Bool)
(declare-fun inv_main30 (Heap Addr Addr Addr) Bool)
(declare-fun inv_main35 (Heap Addr Addr Addr) Bool)
(declare-fun inv_main38 (Heap Addr Addr Addr Int) Bool)
(declare-fun inv_main42 (Heap Addr Addr Addr) Bool)
(declare-fun inv_main46 (Heap Addr Addr Addr) Bool)
(declare-fun inv_main47 (Heap Addr Addr Addr) Bool)
(declare-fun inv_main48 (Heap Addr Addr Addr) Bool)
(declare-fun inv_main51 (Heap Addr Addr Addr) Bool)
(declare-fun inv_main52 (Heap Addr Addr Addr) Bool)
(declare-fun inv_main56 (Heap Addr Addr Addr) Bool)
(declare-fun inv_main7 (Heap Addr Int) Bool)
(assert (inv_main2 emptyHeap))
(assert (forall ((var0 Addr) (var1 Addr) (var2 Addr) (var3 Heap) (var4 Int) (var5 Addr) (var6 Addr) (var7 Addr) (var8 Heap)) (or (not (and (inv_main51 var8 var7 var6 var5) (and (and (= var4 3) (is-O_node (read var8 var5))) (and (and (and (and (= var3 var8) (= var2 var7)) (= var1 var6)) (= var0 var5)) (= var4 (h (getnode (read var8 var5)))))))) (inv_main0 var3 0))))
(assert (forall ((var0 Int) (var1 Addr) (var2 Addr) (var3 Addr) (var4 Heap)) (or (not (inv_main22 var4 var3 var2 var1 var0)) (inv_main22 var4 var3 var2 var1 var0))))
(assert (forall ((var0 Addr) (var1 Addr) (var2 Addr) (var3 Addr) (var4 Addr) (var5 Addr) (var6 node) (var7 Heap) (var8 Heap) (var9 Addr) (var10 Addr) (var11 Addr) (var12 Addr) (var13 Heap)) (or (not (and (inv_main14 var13 var12 var11 var10) (and (= var9 nullAddr) (and (and (and (and (and (and (= var8 (newHeap (alloc var7 (O_node var6)))) (= var5 var4)) (= var3 var2)) (= var1 var0)) (= var9 (newAddr (alloc var7 (O_node var6))))) (is-O_node (read var13 var10))) (and (and (and (= var7 (write var13 var10 (O_node (node 1 (n (getnode (read var13 var10))))))) (= var4 var12)) (= var2 var11)) (= var0 var10)))))) (inv_main22 var8 var5 var9 var1 1))))
(assert (forall ((var0 Addr) (var1 Addr) (var2 Addr) (var3 Addr) (var4 Addr) (var5 Addr) (var6 node) (var7 Heap) (var8 Heap) (var9 Addr) (var10 Addr) (var11 Addr) (var12 Addr) (var13 Heap)) (or (not (and (inv_main30 var13 var12 var11 var10) (and (not (= var9 nullAddr)) (and (and (and (and (and (and (= var8 (newHeap (alloc var7 (O_node var6)))) (= var5 var4)) (= var3 var2)) (= var1 var0)) (= var9 (newAddr (alloc var7 (O_node var6))))) (is-O_node (read var13 var10))) (and (and (and (= var7 (write var13 var10 (O_node (node 2 (n (getnode (read var13 var10))))))) (= var4 var12)) (= var2 var11)) (= var0 var10)))))) (inv_main35 var8 var5 var9 var1))))
(assert (forall ((var0 Addr) (var1 Addr) (var2 Addr) (var3 Heap) (var4 Int) (var5 Addr) (var6 Addr) (var7 Addr) (var8 Heap)) (or (not (and (inv_main47 var8 var7 var6 var5) (and (and (= var4 2) (is-O_node (read var8 var5))) (and (and (and (and (= var3 var8) (= var2 var7)) (= var1 var6)) (= var0 var5)) (= var4 (h (getnode (read var8 var5)))))))) (inv_main52 var3 var2 var1 var0))))
(assert (forall ((var0 Int) (var1 Addr) (var2 Addr) (var3 Addr) (var4 Heap)) (or (not (inv_main38 var4 var3 var2 var1 var0)) (inv_main38 var4 var3 var2 var1 var0))))
(assert (forall ((var0 Addr) (var1 Addr) (var2 Addr) (var3 Addr) (var4 Addr) (var5 Addr) (var6 node) (var7 Heap) (var8 Heap) (var9 Addr) (var10 Addr) (var11 Addr) (var12 Addr) (var13 Heap)) (or (not (and (inv_main30 var13 var12 var11 var10) (and (= var9 nullAddr) (and (and (and (and (and (and (= var8 (newHeap (alloc var7 (O_node var6)))) (= var5 var4)) (= var3 var2)) (= var1 var0)) (= var9 (newAddr (alloc var7 (O_node var6))))) (is-O_node (read var13 var10))) (and (and (and (= var7 (write var13 var10 (O_node (node 2 (n (getnode (read var13 var10))))))) (= var4 var12)) (= var2 var11)) (= var0 var10)))))) (inv_main38 var8 var5 var9 var1 1))))
(assert (forall ((var0 Addr) (var1 Addr) (var2 Addr) (var3 Heap) (var4 Int) (var5 Addr) (var6 Addr) (var7 Addr) (var8 Heap)) (or (not (and (inv_main51 var8 var7 var6 var5) (and (and (not (= var4 3)) (is-O_node (read var8 var5))) (and (and (and (and (= var3 var8) (= var2 var7)) (= var1 var6)) (= var0 var5)) (= var4 (h (getnode (read var8 var5)))))))) (inv_main56 var3 var2 var1 var0))))
(assert (forall ((var0 Addr) (var1 Addr) (var2 Addr) (var3 Addr) (var4 Heap) (var5 Addr) (var6 Addr) (var7 Addr) (var8 Heap)) (or (not (and (inv_main48 var8 var7 var6 var5) (and (is-O_node (read var8 var5)) (and (and (and (and (= var4 var8) (= var3 var7)) (= var2 var6)) (= var1 var5)) (= var0 (n (getnode (read var8 var5)))))))) (inv_main46 var4 var3 var2 var0))))
(assert (forall ((var0 Addr) (var1 Addr) (var2 Addr) (var3 Heap) (var4 Addr) (var5 Addr) (var6 Addr) (var7 Heap)) (or (not (and (inv_main29 var7 var6 var5 var4) (and (is-O_node (read var7 var4)) (and (and (and (= var3 (write var7 var4 (O_node (node 3 (n (getnode (read var7 var4))))))) (= var2 var6)) (= var1 var5)) (= var0 var4))))) (inv_main46 var3 var2 var1 var2))))
(assert (forall ((var0 Addr) (var1 Addr) (var2 Addr) (var3 Addr) (var4 Heap) (var5 Int) (var6 Addr) (var7 Addr) (var8 Addr) (var9 Heap)) (or (not (and (inv_main26 var9 var8 var7 var6) (and (not (= var5 0)) (and (is-O_node (read var9 var6)) (and (and (and (and (= var4 var9) (= var3 var8)) (= var2 var7)) (= var1 var6)) (= var0 (n (getnode (read var9 var6))))))))) (inv_main14 var4 var3 var2 var0))))
(assert (forall ((var0 Addr) (var1 node) (var2 Heap) (var3 Addr) (var4 Int) (var5 Heap)) (or (not (and (inv_main2 var5) (and (not (= var4 0)) (and (not (= var3 nullAddr)) (and (= var2 (newHeap (alloc var5 (O_node var1)))) (= var3 (newAddr (alloc var5 (O_node var1))))))))) (inv_main14 var2 var3 var0 var3))))
(assert (forall ((var0 Int) (var1 Addr) (var2 Addr) (var3 Addr) (var4 Heap)) (or (not (and (inv_main13 var4 var3 var2 var1) (= var0 0))) (inv_main29 var4 var3 var2 var1))))
(assert (forall ((var0 Addr) (var1 Addr) (var2 Addr) (var3 Heap)) (or (not (and (inv_main19 var3 var2 var1 var0) (is-O_node (read var3 var0)))) (inv_main26 (write var3 var0 (O_node (node (h (getnode (read var3 var0))) var1))) var2 var1 var0))))
(assert (forall ((var0 Addr) (var1 Addr) (var2 Addr) (var3 Addr) (var4 Heap) (var5 Addr) (var6 Addr) (var7 Addr) (var8 Heap)) (or (not (and (inv_main42 var8 var7 var6 var5) (and (is-O_node (read var8 var5)) (and (and (and (and (= var4 var8) (= var3 var7)) (= var2 var6)) (= var1 var5)) (= var0 (n (getnode (read var8 var5)))))))) (inv_main13 var4 var3 var2 var0))))
(assert (forall ((var0 Addr) (var1 Addr) (var2 Addr) (var3 Addr) (var4 Heap) (var5 Int) (var6 Addr) (var7 Addr) (var8 Addr) (var9 Heap)) (or (not (and (inv_main26 var9 var8 var7 var6) (and (= var5 0) (and (is-O_node (read var9 var6)) (and (and (and (and (= var4 var9) (= var3 var8)) (= var2 var7)) (= var1 var6)) (= var0 (n (getnode (read var9 var6))))))))) (inv_main13 var4 var3 var2 var0))))
(assert (forall ((var0 Addr) (var1 node) (var2 Heap) (var3 Addr) (var4 Int) (var5 Heap)) (or (not (and (inv_main2 var5) (and (= var4 0) (and (not (= var3 nullAddr)) (and (= var2 (newHeap (alloc var5 (O_node var1)))) (= var3 (newAddr (alloc var5 (O_node var1))))))))) (inv_main13 var2 var3 var0 var3))))
(assert (forall ((var0 Int) (var1 Addr) (var2 Heap)) (or (not (inv_main7 var2 var1 var0)) (inv_main7 var2 var1 var0))))
(assert (forall ((var0 node) (var1 Heap) (var2 Addr) (var3 Heap)) (or (not (and (inv_main2 var3) (and (= var2 nullAddr) (and (= var1 (newHeap (alloc var3 (O_node var0)))) (= var2 (newAddr (alloc var3 (O_node var0)))))))) (inv_main7 var1 var2 1))))
(assert (forall ((var0 Addr) (var1 Addr) (var2 Addr) (var3 Heap)) (or (not (and (inv_main35 var3 var2 var1 var0) (is-O_node (read var3 var0)))) (inv_main42 (write var3 var0 (O_node (node (h (getnode (read var3 var0))) var1))) var2 var1 var0))))
(assert (forall ((var0 Addr) (var1 Addr) (var2 Addr) (var3 Addr) (var4 Addr) (var5 Addr) (var6 node) (var7 Heap) (var8 Heap) (var9 Addr) (var10 Addr) (var11 Addr) (var12 Addr) (var13 Heap)) (or (not (and (inv_main14 var13 var12 var11 var10) (and (not (= var9 nullAddr)) (and (and (and (and (and (and (= var8 (newHeap (alloc var7 (O_node var6)))) (= var5 var4)) (= var3 var2)) (= var1 var0)) (= var9 (newAddr (alloc var7 (O_node var6))))) (is-O_node (read var13 var10))) (and (and (and (= var7 (write var13 var10 (O_node (node 1 (n (getnode (read var13 var10))))))) (= var4 var12)) (= var2 var11)) (= var0 var10)))))) (inv_main19 var8 var5 var9 var1))))
(assert (forall ((var0 Addr) (var1 Addr) (var2 Addr) (var3 Heap) (var4 Int) (var5 Addr) (var6 Addr) (var7 Addr) (var8 Heap)) (or (not (and (inv_main47 var8 var7 var6 var5) (and (and (not (= var4 2)) (is-O_node (read var8 var5))) (and (and (and (and (= var3 var8) (= var2 var7)) (= var1 var6)) (= var0 var5)) (= var4 (h (getnode (read var8 var5)))))))) (inv_main51 var3 var2 var1 var0))))
(assert (forall ((var0 Int) (var1 Addr) (var2 Addr) (var3 Addr) (var4 Heap)) (or (not (and (inv_main13 var4 var3 var2 var1) (not (= var0 0)))) (inv_main30 var4 var3 var2 var1))))
(assert (forall ((var0 Addr) (var1 Addr) (var2 Addr) (var3 Heap) (var4 Int) (var5 Addr) (var6 Addr) (var7 Addr) (var8 Heap)) (or (not (and (inv_main46 var8 var7 var6 var5) (and (and (= var4 1) (is-O_node (read var8 var5))) (and (and (and (and (= var3 var8) (= var2 var7)) (= var1 var6)) (= var0 var5)) (= var4 (h (getnode (read var8 var5)))))))) (inv_main48 var3 var2 var1 var0))))
(assert (forall ((var0 Addr) (var1 Addr) (var2 Addr) (var3 Heap) (var4 Int) (var5 Addr) (var6 Addr) (var7 Addr) (var8 Heap)) (or (not (and (inv_main46 var8 var7 var6 var5) (and (and (not (= var4 1)) (is-O_node (read var8 var5))) (and (and (and (and (= var3 var8) (= var2 var7)) (= var1 var6)) (= var0 var5)) (= var4 (h (getnode (read var8 var5)))))))) (inv_main47 var3 var2 var1 var0))))
(assert (forall ((var0 Addr) (var1 Addr) (var2 Addr) (var3 Addr) (var4 Heap) (var5 Addr) (var6 Addr) (var7 Addr) (var8 Heap)) (or (not (and (inv_main52 var8 var7 var6 var5) (and (is-O_node (read var8 var5)) (and (and (and (and (= var4 var8) (= var3 var7)) (= var2 var6)) (= var1 var5)) (= var0 (n (getnode (read var8 var5)))))))) (inv_main47 var4 var3 var2 var0))))
(assert (forall ((var0 Addr) (var1 Addr) (var2 Addr) (var3 Heap)) (not (and (inv_main14 var3 var2 var1 var0) (not (is-O_node (read var3 var0)))))))
(assert (forall ((var0 Addr) (var1 Addr) (var2 Addr) (var3 Heap)) (not (and (inv_main19 var3 var2 var1 var0) (not (is-O_node (read var3 var0)))))))
(assert (forall ((var0 Addr) (var1 Addr) (var2 Addr) (var3 Heap)) (not (and (inv_main26 var3 var2 var1 var0) (not (is-O_node (read var3 var0)))))))
(assert (forall ((var0 Addr) (var1 Addr) (var2 Addr) (var3 Heap)) (not (and (inv_main30 var3 var2 var1 var0) (not (is-O_node (read var3 var0)))))))
(assert (forall ((var0 Addr) (var1 Addr) (var2 Addr) (var3 Heap)) (not (and (inv_main35 var3 var2 var1 var0) (not (is-O_node (read var3 var0)))))))
(assert (forall ((var0 Addr) (var1 Addr) (var2 Addr) (var3 Heap)) (not (and (inv_main42 var3 var2 var1 var0) (not (is-O_node (read var3 var0)))))))
(assert (forall ((var0 Addr) (var1 Addr) (var2 Addr) (var3 Heap)) (not (and (inv_main29 var3 var2 var1 var0) (not (is-O_node (read var3 var0)))))))
(assert (forall ((var0 Addr) (var1 Addr) (var2 Addr) (var3 Heap)) (not (and (inv_main46 var3 var2 var1 var0) (not (is-O_node (read var3 var0)))))))
(assert (forall ((var0 Addr) (var1 Addr) (var2 Addr) (var3 Heap)) (not (and (inv_main48 var3 var2 var1 var0) (not (is-O_node (read var3 var0)))))))
(assert (forall ((var0 Addr) (var1 Addr) (var2 Addr) (var3 Heap)) (not (and (inv_main47 var3 var2 var1 var0) (not (is-O_node (read var3 var0)))))))
(assert (forall ((var0 Addr) (var1 Addr) (var2 Addr) (var3 Heap)) (not (and (inv_main52 var3 var2 var1 var0) (not (is-O_node (read var3 var0)))))))
(assert (forall ((var0 Addr) (var1 Addr) (var2 Addr) (var3 Heap)) (not (and (inv_main51 var3 var2 var1 var0) (not (is-O_node (read var3 var0)))))))
(assert (forall ((var0 Addr) (var1 Addr) (var2 Addr) (var3 Heap)) (not (inv_main56 var3 var2 var1 var0))))
(assert (forall ((var0 Addr) (var1 Int) (var2 Heap)) (not (and (inv_main0 var2 var1) (not (= (read var2 var0) defObj))))))
(check-sat)
